************************************************************************
file with basedata            : cn146_.bas
initial value random generator: 69630360
************************************************************************
projects                      :  1
jobs (incl. supersource/sink ):  18
horizon                       :  125
RESOURCES
  - renewable                 :  2   R
  - nonrenewable              :  1   N
  - doubly constrained        :  0   D
************************************************************************
PROJECT INFORMATION:
pronr.  #jobs rel.date duedate tardcost  MPM-Time
    1     16      0       25        9       25
************************************************************************
PRECEDENCE RELATIONS:
jobnr.    #modes  #successors   successors
   1        1          3           2   3   4
   2        3          2           6   7
   3        3          3           5   6   9
   4        3          3           6   9  13
   5        3          3          10  11  12
   6        3          3          10  12  17
   7        3          3           8  10  15
   8        3          2           9  11
   9        3          1          17
  10        3          1          16
  11        3          1          13
  12        3          2          14  15
  13        3          2          14  17
  14        3          1          16
  15        3          1          18
  16        3          1          18
  17        3          1          18
  18        1          0        
************************************************************************
REQUESTS/DURATIONS:
jobnr. mode duration  R 1  R 2  N 1
------------------------------------------------------------------------
  1      1     0       0    0    0
  2      1     3       5    2    5
         2     7       3    2    4
         3     9       2    2    3
  3      1     2       9    8    6
         2     6       8    8    6
         3    10       7    7    6
  4      1     2       9    9    6
         2     3       8    9    5
         3     5       8    8    5
  5      1     1       4    9    9
         2     2       4    8    9
         3     7       4    8    8
  6      1     1       6    7   10
         2     3       6    7    7
         3     5       3    7    2
  7      1     6       8    3    3
         2     8       6    2    2
         3    10       5    1    2
  8      1     2       5    6    2
         2     5       3    5    2
         3     9       1    3    2
  9      1     3       9    8    9
         2     4       7    5    4
         3     5       5    4    2
 10      1     2       5    8    6
         2     2       6    8    5
         3     6       1    7    5
 11      1     2       3   10    5
         2    10       3    6    2
         3    10       3    5    3
 12      1     2       6    6    7
         2     3       6    6    6
         3     9       5    4    4
 13      1     3       7    7    9
         2     5       5    7    9
         3     8       4    2    9
 14      1     4       4    8    3
         2     4       4    6    4
         3     6       3    6    1
 15      1     5       5    7    6
         2     8       4    5    3
         3    10       3    2    2
 16      1     5       8    8    6
         2     5       5    8    7
         3     6       2    8    4
 17      1     2       9    4    9
         2     7       5    3    9
         3    10       3    2    7
 18      1     0       0    0    0
************************************************************************
RESOURCEAVAILABILITIES:
  R 1  R 2  N 1
   16   17   84
************************************************************************
